unsat
(forall ((A (_ BitVec 1))
         (B (_ BitVec 1))
         (C (_ BitVec 1))
         (D (_ BitVec 32))
         (E (_ BitVec 32))
         (F (_ BitVec 1))
         (G (_ BitVec 2))
         (H (_ BitVec 32))
         (I (_ BitVec 1))
         (J (_ BitVec 1))
         (K (_ BitVec 1))
         (L (_ BitVec 2))
         (M (_ BitVec 1))
         (N (_ BitVec 1))
         (O (_ BitVec 6))
         (P (_ BitVec 6))
         (Q (_ BitVec 1))
         (R (_ BitVec 1))
         (S (_ BitVec 1))
         (T (_ BitVec 1))
         (U (_ BitVec 1))
         (V (_ BitVec 1))
         (W (_ BitVec 34))
         (X (_ BitVec 1))
         (Y (_ BitVec 1))
         (Z (_ BitVec 1))
         (A1 (_ BitVec 2))
         (B1 (_ BitVec 6))
         (C1 (_ BitVec 1))
         (D1 (_ BitVec 1))
         (E1 (_ BitVec 2))
         (F1 (_ BitVec 1))
         (G1 (_ BitVec 1))
         (H1 (_ BitVec 1))
         (I1 (_ BitVec 1))
         (J1 (_ BitVec 1))
         (K1 (_ BitVec 1))
         (L1 (_ BitVec 1))
         (M1 (_ BitVec 22))
         (N1 (_ BitVec 10))
         (O1 (_ BitVec 1))
         (P1 (_ BitVec 22))
         (Q1 (_ BitVec 1))
         (R1 (_ BitVec 1))
         (S1 (_ BitVec 1))
         (T1 (_ BitVec 1))
         (U1 (_ BitVec 1))
         (V1 (_ BitVec 1))
         (W1 (_ BitVec 1))
         (X1 (_ BitVec 1))
         (Y1 (_ BitVec 32))
         (Z1 (_ BitVec 1))
         (A2 (_ BitVec 2))
         (B2 (_ BitVec 1))
         (C2 (_ BitVec 22))
         (D2 (_ BitVec 1)))
  (! (let ((a!1 (or (not (= ((_ extract 0 0) G) #b1)) (= M #b0)))
           (a!2 (or (= M #b0)
                    (not (bvule ((_ extract 4 0) B1) #b10001))
                    (not (or (= S #b0) (= G1 #b0)))
                    (not (= ((_ extract 5 5) B1) #b0))))
           (a!3 (or (= B1 #b000000)
                    (not (= C1 #b0))
                    (not (= H1 #b1))
                    (not (= Q #b0))
                    (not (= ((_ extract 0 0) G) #b1))))
           (a!4 (or (not ((_ bit2bool 0) F1)) (not (= ((_ extract 0 0) G) #b1))))
           (a!5 (or (not (= B1 #b000000))
                    (not ((_ bit2bool 0) S1))
                    (not (= ((_ extract 1 1) G) #b0))))
           (a!6 (ite (= M #b1)
                     (= ((_ extract 1 1) N1) #b0)
                     (= ((_ extract 2 2) N1) #b0)))
           (a!7 (or (= B1 #b000000)
                    (not (= Q #b0))
                    (not (= ((_ extract 0 0) G) #b1))
                    (not (= S1 #b0))))
           (a!8 (ite (= M #b1)
                     (= ((_ extract 2 2) N1) #b0)
                     (= ((_ extract 3 3) N1) #b0)))
           (a!9 (or (not (= ((_ extract 5 1) B1) #b00000)) (= G1 #b0)))
           (a!14 (or (= M #b0)
                     (not (bvule ((_ extract 4 0) B1) #b10001))
                     (not (= S #b0))
                     (not (= ((_ extract 5 5) B1) #b0))))
           (a!16 (or (= M #b0)
                     (and (= ((_ extract 4 4) B1) #b0)
                          (= ((_ extract 3 3) B1) #b0)
                          (= ((_ extract 2 2) B1) #b0)
                          (= ((_ extract 1 1) B1) #b0)
                          (= ((_ extract 0 0) B1) #b0)
                          (= ((_ extract 5 5) B1) #b0))))
           (a!18 (ite (= M #b1)
                      (= ((_ extract 0 0) N1) #b0)
                      (= ((_ extract 1 1) N1) #b0)))
           (a!19 (ite (= G #b00)
                      (or (not (= Y #b1)) (= ((_ extract 1 1) G) #b1))
                      (= ((_ extract 1 1) (bvadd #b11 G)) #b1)))
           (a!20 (or (not (= ((_ extract 5 5) B1) #b0))
                     (not (= ((_ extract 4 4) B1) #b0))
                     (not (= ((_ extract 0 0) B1) #b0))
                     (not (= ((_ extract 3 3) B1) #b0))
                     (not (= ((_ extract 2 2) B1) #b0))
                     (not (= ((_ extract 1 1) B1) #b0))))
           (a!26 (= (ite (= G #b00) (ite (= Y #b1) G #b11) (bvadd #b11 G)) #b01))
           (a!39 (not (= (ite (= M #b1)
                              ((_ extract 30 30) W)
                              ((_ extract 32 32) W))
                         (ite (= M #b1)
                              ((_ extract 27 27) W)
                              ((_ extract 29 29) W)))))
           (a!40 (or (= M #b0)
                     (not (bvule ((_ extract 4 0) B1) #b10001))
                     (not (= ((_ extract 5 5) B1) #b0))))
           (a!48 (or (= ((_ extract 1 1) N1) #b0)
                     (not (= G #b01))
                     (and (not (= Q #b0))
                          (not (= B1 #b000000))
                          (not (= T1 #b0)))))
           (a!50 (and (or (= Q #b0) (= F #b0) (not (= B1 #b000010)))
                      (not (= ((_ extract 5 1) B1) #b00000))))
           (a!63 (or (not (= G #b01))
                     ((_ bit2bool 0) T1)
                     (not (= ((_ extract 0 0) B1) #b1))))
           (a!64 (or (= M #b0)
                     (not (= ((_ extract 5 1) B1) #b00000))
                     ((_ bit2bool 0) F1)
                     (not ((_ bit2bool 0) S1))))
           (a!65 (or (= M #b0)
                     (not (= C1 #b0))
                     (not (= ((_ extract 5 1) B1) #b00000))
                     (not (= S1 #b1))))
           (a!66 (or (not (= C1 #b0))
                     (not (= G #b11))
                     (not (= ((_ extract 0 0) B1) #b1))))
           (a!67 (ite (or (= W1 #b0)
                          (= ((_ extract 12 12) Y1) #b0)
                          (= ((_ extract 8 8) Y1) #b1))
                      B1
                      #b000101))
           (a!69 (or (not ((_ bit2bool 32) W))
                     (not (= G1 #b0))
                     (not (= A1 #b10))
                     (not (= ((_ extract 5 1) B1) #b00000))))
           (a!73 (or (and (not (= M #b1)) (not (= B1 #b000000)))
                     (and (not (= Q #b0)) (not (= F #b0)) (= B1 #b000010))
                     (= ((_ extract 5 1) B1) #b00000)))
           (a!78 (not (= (concat ((_ extract 30 16) E)
                                 ((_ extract 14 6) E)
                                 ((_ extract 7 0) E))
                         E))))
     (let ((a!10 (ite (or (= M #b0) (= T1 #b0))
                      (= T1 #b1)
                      (or (= ((_ extract 5 1) B1) #b00000) (not a!9))))
           (a!12 (or a!8
                     (ite (= M #b1)
                          (= ((_ extract 4 4) N1) #b0)
                          (= ((_ extract 5 5) N1) #b0))))
           (a!13 (or a!6
                     (ite (= M #b1)
                          (= ((_ extract 3 3) N1) #b0)
                          (= ((_ extract 4 4) N1) #b0))))
           (a!15 (and (= T #b1) (or (not a!14) (= ((_ extract 1 1) A1) #b1))))
           (a!17 (ite a!16
                      (= ((_ extract 5 5) B1) #b0)
                      (= ((_ extract 5 5) (bvadd #b111111 B1)) #b0)))
           (a!21 (ite (or (= M #b0) (not a!20))
                      (= ((_ extract 5 5) B1) #b0)
                      (= ((_ extract 5 5) (bvadd #b111111 B1)) #b0)))
           (a!22 (ite (or (= M #b0) (not a!20))
                      ((_ extract 4 0) B1)
                      (bvadd #b11111 ((_ extract 4 0) B1))))
           (a!25 (or (= A1 #b00)
                     (not (= G1 #b1))
                     (not (= ((_ extract 0 0) G) #b1))
                     a!18))
           (a!27 (ite a!16
                      (= ((_ extract 1 1) B1) #b0)
                      (= ((_ extract 1 1) (bvadd #b111111 B1)) #b0)))
           (a!28 (ite (or (= M #b0) (not a!20)) B1 (bvadd #b111111 B1)))
           (a!29 (ite (or (= M #b0) (not a!20))
                      (= ((_ extract 3 3) B1) #b0)
                      (= ((_ extract 3 3) (bvadd #b111111 B1)) #b0)))
           (a!30 (not (ite (or (= M #b0) (not a!20))
                           (= ((_ extract 0 0) B1) #b0)
                           (= ((_ extract 0 0) B1) #b1))))
           (a!31 (ite (or (= M #b0) (not a!20))
                      (= ((_ extract 1 1) B1) #b0)
                      (= ((_ extract 1 1) (bvadd #b111111 B1)) #b0)))
           (a!32 (ite (or (= M #b0) (not a!20))
                      (= ((_ extract 2 2) B1) #b0)
                      (= ((_ extract 2 2) (bvadd #b111111 B1)) #b0)))
           (a!33 (ite (or (= M #b0) (not a!20))
                      (= ((_ extract 4 4) B1) #b0)
                      (= ((_ extract 4 4) (bvadd #b111111 B1)) #b0)))
           (a!36 (ite a!16
                      (= ((_ extract 2 2) B1) #b0)
                      (= ((_ extract 2 2) (bvadd #b111111 B1)) #b0)))
           (a!38 (ite a!16
                      (= ((_ extract 3 3) B1) #b0)
                      (= ((_ extract 3 3) (bvadd #b111111 B1)) #b0)))
           (a!41 (ite a!16
                      (= ((_ extract 4 4) B1) #b0)
                      (= ((_ extract 4 4) (bvadd #b111111 B1)) #b0)))
           (a!49 (ite (or (= M #b0) (not a!20))
                      (= ((_ extract 1 1) B1) #b1)
                      (= ((_ extract 1 1) (bvadd #b111111 B1)) #b1)))
           (a!51 (ite (or (= M #b1) (= B1 #b000000))
                      a!50
                      (or (= Q #b0) (= F #b0) (not (= B1 #b000001)))))
           (a!52 (or (not (= J #b0))
                     (not (= V1 #b1))
                     a!18
                     (= (ite a!40 A1 #b11) #b11)
                     (not (= ((_ extract 14 0) E) ((_ extract 16 2) E)))))
           (a!56 (or (= H1 #b1)
                     (not (= A1 #b10))
                     a!6
                     (and (not (= M #b0))
                          (bvule ((_ extract 4 0) B1) #b10001)
                          (= ((_ extract 5 5) B1) #b0))))
           (a!57 (or (= H1 #b1)
                     (not (= ((_ extract 0 0) G) #b1))
                     (= ((_ extract 0 0) A1) #b1)
                     (not (= G1 #b0))
                     a!6))
           (a!58 (or (not (= I #b0))
                     (not (= ((_ extract 0 0) G) #b1))
                     (= ((_ extract 0 0) A1) #b1)
                     (not (= G1 #b0))
                     a!6))
           (a!60 (or (= ((_ extract 0 0) A1) #b1)
                     a!6
                     (and (bvule ((_ extract 4 0) B1) #b10001)
                          (= ((_ extract 5 5) B1) #b0))))
           (a!61 (or (= G1 #b1)
                     (= ((_ extract 0 0) A1) #b1)
                     a!8
                     (and (not (= M #b0))
                          (bvule ((_ extract 4 0) B1) #b10001)
                          (or (= S #b0) (= G1 #b0))
                          (= ((_ extract 5 5) B1) #b0))))
           (a!62 (or ((_ bit2bool 0) F1)
                     (not (= ((_ extract 32 32) W) #b1))
                     (= A1 (ite a!2 A1 #b11))))
           (a!68 (ite (or (= W1 #b0)
                          (= ((_ extract 12 12) Y1) #b0)
                          (= ((_ extract 8 8) Y1) #b1)
                          (= ((_ extract 10 10) Y1) #b1))
                      a!67
                      #b001001))
           (a!70 (or (= H1 #b1)
                     (= P O)
                     a!6
                     (= ((_ extract 1 1) (bvadd #b111111 B1)) #b1)))
           (a!71 (= (ite (or (= M #b0) (not a!20))
                         ((_ extract 5 1) B1)
                         ((_ extract 5 1) (bvadd #b111111 B1)))
                    #b00000))
           (a!75 (ite (or (= M #b0) (not a!20))
                      (= ((_ extract 3 3) B1) #b1)
                      (= ((_ extract 3 3) (bvadd #b111111 B1)) #b1)))
           (a!76 (or (= H1 #b1)
                     (= P O)
                     (not (= ((_ extract 0 0) G) #b1))
                     (= ((_ extract 0 0) A1) #b1)
                     a!6
                     (not (= ((_ extract 15 7) E) ((_ extract 14 6) E)))
                     (not (= ((_ extract 28 14) E) ((_ extract 30 16) E)))))
           (a!77 (or (= H1 #b1)
                     (not (= G #b10))
                     (= P O)
                     a!6
                     (= (ite a!40 A1 #b11) #b11)
                     (not (= ((_ extract 15 7) E) ((_ extract 14 6) E)))
                     (not (= ((_ extract 28 7) E) ((_ extract 30 9) E)))))
           (a!79 (or (= H1 #b1)
                     (= P O)
                     (= Q #b0)
                     (= ((_ extract 0 0) A1) #b1)
                     a!6
                     a!78
                     (not (= ((_ extract 28 7) E) ((_ extract 30 9) E)))))
           (a!80 (or (and (not (= G1 #b0)) (not (= T #b1)))
                     (not (= W1 #b0))
                     a!6
                     (= (ite a!2 A1 #b11) #b11)))
           (a!81 (or (not (= F1 #b1))
                     (not ((_ bit2bool 2) N1))
                     ((_ bit2bool 0) Y)
                     (= ((_ extract 0 0) A1) #b1)
                     (not (= ((_ extract 16 8) E) ((_ extract 14 6) E)))
                     (not (= ((_ extract 6 0) E) ((_ extract 7 1) E)))
                     (not (= ((_ extract 1 0) E) A2))
                     (= (ite a!20 (bvadd #b111111 B1) B1) #b000110)))
           (a!83 ((_ extract 3 3)
                   (bvadd #b111111 (ite a!20 (bvadd #b111111 B1) B1)))))
     (let ((a!11 (or (not ((_ bit2bool 1) G))
                     ((_ bit2bool 0) G)
                     a!10
                     (and (not (= U #b0)) (not (= T1 #b1)))))
           (a!23 (not (or (not (= S #b0)) (not a!21) (not (bvule a!22 #b10001)))))
           (a!34 (or (not a!29)
                     a!30
                     (not a!31)
                     (not a!21)
                     (not a!32)
                     (not a!33)))
           (a!37 (or (not (= X #b0))
                     (not (= J #b0))
                     (= P (ite (= R #b1) (bvadd #b000001 O) O))
                     a!18
                     (= a!28 #b001000)))
           (a!44 (ite (or (= S1 #b1) (= ((_ extract 8 8) H) #b1)) a!28 #b000101))
           (a!46 (ite (or (= S1 #b1)
                          (= ((_ extract 12 12) H) #b0)
                          (= ((_ extract 8 8) H) #b1))
                      a!28
                      #b000101))
           (a!59 (or (not (= ((_ extract 0 0) A1) #b0))
                     a!18
                     a!19
                     (and a!21 (bvule a!22 #b10001))))
           (a!72 (or (= Y #b1) (= G1 #b0) a!10 (not (or (= U #b0) (= T1 #b1)))))
           (a!82 (or (not (= ((_ extract 0 0) G) #b1))
                     a!6
                     a!27
                     (= a!28 #b000111))))
     (let ((a!24 (or (not (= X #b0))
                     (not (= G #b10))
                     (not (= G1 #b1))
                     (not (= ((_ extract 1 1) A1) #b1))
                     a!18
                     (and (= T #b1) a!23)))
           (a!35 (or (not (= G1 #b1))
                     a!6
                     (= (ite a!34 (bvadd #b111111 a!28) a!28) #b000110)))
           (a!42 (ite (or (not (= G #b01)) (not a!34))
                      a!22
                      (bvadd #b11111 a!22)))
           (a!45 (ite (or (= S1 #b1)
                          (= ((_ extract 10 10) H) #b1)
                          (= ((_ extract 8 8) H) #b1))
                      a!44
                      #b001001))
           (a!47 (ite (or (= S1 #b1)
                          (= ((_ extract 10 10) H) #b1)
                          (= ((_ extract 12 12) H) #b0)
                          (= ((_ extract 8 8) H) #b1))
                      a!46
                      #b001001))
           (a!53 (ite a!34 (= ((_ extract 5 5) (bvadd #b111111 a!28)) #b0) a!21))
           (a!74 (or ((_ bit2bool 0) C1)
                     (not (= S1 #b0))
                     (and (or (= F #b0) (= G1 #b1)) a!72)
                     (and (not (= G1 #b0)) a!73)))
           (a!84 (or (not (= J #b0))
                     a!6
                     (= (ite a!34 (bvadd #b111111 a!28) a!28) #b000110))))
     (let ((a!43 (or (not (= ((_ extract 0 0) G) #b1))
                     (= ((_ extract 0 0) A1) #b1)
                     a!6
                     (bvule a!42 #b10001)))
           (a!54 (and (bvule (ite a!34 (bvadd #b11111 a!22) a!22) #b10001) a!53)))
     (let ((a!55 (or (= H1 #b1)
                     (not (= ((_ extract 0 0) G) #b1))
                     (= ((_ extract 0 0) A1) #b1)
                     a!18
                     a!54)))
     (let ((a!85 (and (or (not ((_ bit2bool 2) N1)) (not ((_ bit2bool 3) B1)))
                      (or (not ((_ bit2bool 32) W)) (not (= C1 #b0)))
                      (not (= D1 #b1))
                      a!1
                      (or (= M #b0)
                          (= Z #b0)
                          (not (= X #b0))
                          ((_ bit2bool 0) T1))
                      (or (not (= X #b0))
                          (not ((_ bit2bool 32) W))
                          (not ((_ bit2bool 0) F1))
                          (not (= S1 #b0))
                          (= ((_ extract 0 0) A1) #b1))
                      (or (not (= K1 #b1)) (not (= S1 #b0)))
                      (or (not (= K1 #b1)) (= ((_ extract 0 0) G) #b1))
                      (or (= B1 #b000000) (not (= K1 #b1)))
                      (or (= Z #b0) (= T1 #b1) (= A1 (ite a!2 A1 #b11)))
                      (or (= M #b0) (not ((_ bit2bool 1) G)))
                      (or (not (= I #b0))
                          (not (= R #b1))
                          ((_ bit2bool 12) E)
                          (= ((_ extract 0 0) A1) #b1))
                      a!3
                      (or ((_ bit2bool 0) T1) (not (= B1 #b000000)) (= Z #b0))
                      a!4
                      (or (= Q #b0) (= ((_ extract 0 0) G) #b1))
                      a!5
                      (or (= B1 #b000000)
                          (not (= J #b0))
                          ((_ bit2bool 0) T1)
                          (not ((_ bit2bool 0) Y)))
                      (or (not (= C1 #b0)) a!6)
                      (or (= Z #b0) (not (= T1 #b0)) (not (= S1 #b0)))
                      a!7
                      (or (= ((_ extract 2 2) N1) #b0)
                          (= B1 #b000000)
                          (not (= R #b1))
                          (not ((_ bit2bool 1) G))
                          (= ((_ extract 4 4) B1) #b1))
                      (not (= A1 #b01))
                      (or (= P O)
                          (not (= B1 #b000000))
                          (not ((_ bit2bool 0) S1)))
                      (or (not (= Z1 #b1))
                          (not (= B1 #b000000))
                          (not ((_ bit2bool 0) S1)))
                      (or (not (= C1 #b0)) a!8)
                      (or (not (= U #b1)) (= M #b0))
                      (or (= Z #b0)
                          (not (= X #b0))
                          (not (= G #b10))
                          ((_ bit2bool 0) T1))
                      (or (not (= G #b01)) (not (= Q #b0)))
                      (or (not (= V1 #b1)) (not ((_ bit2bool 0) Y)))
                      (or (not ((_ bit2bool 0) G)) (not (= U #b1)))
                      (or (not (= R #b1))
                          (not (= M #b1))
                          (not ((_ bit2bool 0) S1)))
                      (or ((_ bit2bool 0) T1) (not (= X #b0)) (not (= F1 #b1)))
                      (or (not ((_ bit2bool 3) N1)) (not (= C1 #b0)))
                      a!11
                      a!12
                      a!13
                      (or (= ((_ extract 3 3) N1) #b0)
                          (= A1 #b00)
                          (not (= G1 #b1))
                          (not (= T #b0)))
                      (or ((_ bit2bool 0) T1) (not (= H1 #b1)) (not (= G #b01)))
                      (or (= A1 #b00) (not (= J #b0)) (not (= G1 #b1)) a!15)
                      (or (= H1 #b1) (= A1 #b00) (not (= G1 #b1)) a!15)
                      (or ((_ bit2bool 0) T1) (not (= X #b0)) (not (= G #b01)))
                      (or (= ((_ extract 1 1) A1) #b1) (not (= C1 #b0)) a!17)
                      (or a!17 a!18 a!19)
                      (or (not (= C1 #b0)) (not (= G #b11)) a!17)
                      (or (= ((_ extract 1 1) A1) #b1)
                          (= ((_ extract 3 3) N1) #b0)
                          (not (= X #b0))
                          (not (= J #b0))
                          ((_ bit2bool 13) E)
                          ((_ bit2bool 12) E))
                      (or ((_ bit2bool 0) F1)
                          (not ((_ bit2bool 0) T1))
                          (not (= M #b1))
                          (= ((_ extract 2 2) N1) #b0))
                      (or (= Z #b0)
                          (not (= I #b0))
                          (not (= G #b10))
                          ((_ bit2bool 0) T1))
                      (or (= B1 #b000000)
                          (not (= T1 #b0))
                          (not ((_ bit2bool 2) N1))
                          (= ((_ extract 1 1) G) #b1))
                      (or (= B1 #b000000)
                          (= H1 #b1)
                          (= P O)
                          (not (= G1 #b1))
                          (not ((_ bit2bool 0) N1)))
                      (or (not ((_ bit2bool 0) N1)) (= A1 #b00))
                      a!24
                      (or (= A1 #b00)
                          (not (= G #b10))
                          (= P O)
                          (not (= G1 #b1))
                          a!18)
                      (or (not (= C1 #b0)) (not (= G1 #b1)) (not (= G #b11)))
                      (or (not (= T #b1)) (not ((_ bit2bool 0) N1)))
                      a!25
                      (or (= A1 #b00) (not (= G1 #b1)) a!18 (not a!26))
                      (or (= A1 #b00) (not (= G1 #b1)) a!8)
                      (or (= ((_ extract 3 3) N1) #b0)
                          (not (= I #b0))
                          (not (= G1 #b1))
                          (not ((_ bit2bool 0) A1)))
                      (or (not (= T #b1))
                          (not (= J #b0))
                          (not ((_ bit2bool 3) N1))
                          (not (= G1 #b1)))
                      (or (not (= G1 #b1)) a!27 a!18)
                      (or (not (= G1 #b1))
                          ((_ bit2bool 0) T1)
                          a!18
                          (= a!28 #b001000))
                      a!35
                      (or (= ((_ extract 3 3) N1) #b0) (not (= I1 #b0)))
                      (or (= ((_ extract 1 1) A1) #b1)
                          (= ((_ extract 5 5) B1) #b0)
                          ((_ bit2bool 12) E))
                      (or (= ((_ extract 1 1) A1) #b1)
                          (= ((_ extract 5 5) B1) #b0)
                          (not (= G1 #b0)))
                      (or a!36 a!18 a!19)
                      (or a!6 a!36 (= a!28 #b000111))
                      (or (= ((_ extract 1 1) A1) #b1)
                          (= ((_ extract 3 3) N1) #b0)
                          (not (= G1 #b0)))
                      a!37
                      (or (= B1 #b001001) (= ((_ extract 0 0) N1) #b0))
                      (or (= H1 #b1) (not (= G1 #b1)) a!18 (= a!28 #b001000))
                      (or (not (= J #b0))
                          (not (= G1 #b1))
                          a!18
                          (= a!28 #b001000))
                      (or (= ((_ extract 1 1) A1) #b1)
                          (not (= Z1 #b0))
                          a!6
                          a!27
                          (= a!28 #b000111))
                      (or (= ((_ extract 1 1) N1) #b0) (not (= C1 #b0)))
                      (or a!38 a!17 a!18)
                      (or (not (= X #b0)) a!17 a!18)
                      (or ((_ bit2bool 20) P1)
                          (not ((_ bit2bool 0) P1))
                          (not ((_ bit2bool 17) P1))
                          a!17
                          a!18
                          a!39)
                      (or (not (= T #b1)) a!18)
                      (or (not (= T #b1)) a!6)
                      (or (= M #b0) (not (= T #b1)) (not ((_ bit2bool 2) N1)))
                      (or (= (ite a!40 A1 #b11) #b11) a!6 a!41)
                      a!43
                      (or (= ((_ extract 3 3) N1) #b0) (not (= A1 #b10)))
                      (or (= ((_ extract 2 2) N1) #b0)
                          (= A1 #b00)
                          (not (= G1 #b1))
                          a!15)
                      (or (= a!28 #b000110) a!8)
                      (or (= ((_ extract 1 1) N1) #b0)
                          (= A1 #b00)
                          (not (= G1 #b1))
                          (not (= M #b1)))
                      (or (= B1 #b001000) (= ((_ extract 1 1) N1) #b0))
                      (or (= T #b1)
                          (= A1 #b00)
                          (not (= I #b0))
                          (not (= G1 #b1)))
                      (or (not (= G #b10)) a!18 (= a!45 #b001000))
                      (or (= Q #b0) a!18 (= a!47 #b001000))
                      (or (not (= I #b0)) (= F #b0))
                      (or (= F #b0) (not ((_ bit2bool 0) H1)))
                      a!48
                      (or ((_ bit2bool 0) F1) a!6 a!49)
                      (or a!8 a!51)
                      (or (= ((_ extract 1 1) N1) #b0)
                          (not (= M #b1))
                          ((_ bit2bool 0) F1))
                      (or (= ((_ extract 1 1) A1) #b1)
                          (not (= J #b0))
                          a!6
                          a!19
                          (= a!28 #b000111))
                      a!52
                      (or (not (= J #b0))
                          (not (= G1 #b0))
                          a!6
                          (= (ite a!40 A1 #b11) #b11))
                      (or a!18 a!6)
                      (or (not (= G #b10))
                          (= Z1 #b1)
                          (= ((_ extract 0 0) A1) #b1)
                          (not (= G1 #b0))
                          a!6)
                      a!55
                      a!56
                      (or (not (= A1 #b10))
                          (not (= I #b0))
                          a!6
                          (= (ite a!40 #b10 #b11) #b11))
                      a!57
                      (or (not (= V1 #b1)) (not (= G1 #b0)))
                      a!58
                      a!59
                      a!60
                      a!61
                      (or (= ((_ extract 2 2) N1) #b0)
                          (= B1 #b000111)
                          (= ((_ extract 1 1) G) #b1))
                      (or (= B1 #b000110) (not ((_ bit2bool 3) N1)))
                      (or (not (= X #b0))
                          (not ((_ bit2bool 32) W))
                          (not (= M #b1))
                          ((_ bit2bool 0) F1))
                      (or (not (= F1 #b1))
                          (not (= T1 #b0))
                          (= ((_ extract 0 0) A1) #b1))
                      (or (not ((_ bit2bool 32) W))
                          ((_ bit2bool 0) T1)
                          (= ((_ extract 1 1) G) #b1))
                      a!62
                      a!63
                      a!64
                      a!65
                      a!66
                      (or (not ((_ bit2bool 0) S1))
                          (not (= B1 #b000000))
                          (= A1 #b00))
                      (or (= ((_ extract 1 1) N1) #b0)
                          (= Z #b0)
                          ((_ bit2bool 0) T1)
                          (not (= a!68 #b000001)))
                      a!69
                      a!70
                      (or (not (= F1 #b1)) (not (= H1 #b1)) (= T1 #b1))
                      (or (not (= F1 #b1))
                          (= T1 #b1)
                          (= ((_ extract 4 4) B1) #b1))
                      (or a!6 (not a!71) (= a!28 #b000000))
                      (or (= ((_ extract 3 3) N1) #b0)
                          (= H1 #b1)
                          (not (= R #b1))
                          (not (= J #b0))
                          (= G1 #b1))
                      (or (= ((_ extract 5 1) B1) #b00000) (not (= S1 #b0)))
                      a!74
                      (or a!18 a!75)
                      (or ((_ bit2bool 1) B1) ((_ bit2bool 3) B1) a!6)
                      (or (= ((_ extract 2 2) N1) #b0)
                          (not (= R #b1))
                          (not (= G #b01)))
                      a!76
                      a!77
                      a!79
                      (or (and a!21 (bvule a!22 #b10001)) a!6)
                      a!80
                      (or (not (= G #b10))
                          (= B1 #b000111)
                          (not ((_ bit2bool 2) N1))
                          ((_ bit2bool 0) Y)
                          (not ((_ bit2bool 0) T1)))
                      a!81
                      (or ((_ bit2bool 0) X)
                          (not (= R #b1))
                          (not (= J #b0))
                          (= ((_ extract 0 0) A1) #b1)
                          (not (= G1 #b0)))
                      a!82
                      (or (not ((_ bit2bool 1) B1))
                          (= B1 #b000111)
                          (not ((_ bit2bool 2) N1))
                          (not (= U #b1)))
                      (or (= a!83 #b0) a!6)
                      (or (= ((_ extract 2 2) N1) #b0)
                          (= B1 #b000111)
                          (not ((_ bit2bool 12) E))
                          (not ((_ bit2bool 9) E))
                          (not ((_ bit2bool 10) E))
                          (not ((_ bit2bool 11) E))
                          (not ((_ bit2bool 14) E))
                          (not ((_ bit2bool 13) E))
                          (not ((_ bit2bool 0) E))
                          (not ((_ bit2bool 15) E))
                          (not ((_ bit2bool 8) E))
                          (not ((_ bit2bool 16) E)))
                      a!84
                      (or (not (= G #b10))
                          (= B1 #b000111)
                          (not ((_ bit2bool 2) N1))
                          (not ((_ bit2bool 0) Y))))))
       (= (INV!slice!1 A
                       B
                       C
                       D
                       E
                       F
                       G
                       H
                       I
                       J
                       K
                       L
                       M
                       N
                       O
                       P
                       Q
                       R
                       S
                       T
                       U
                       V
                       W
                       X
                       Y
                       Z
                       A1
                       B1
                       C1
                       D1
                       E1
                       F1
                       G1
                       H1
                       I1
                       J1
                       K1
                       L1
                       M1
                       N1
                       O1
                       P1
                       Q1
                       R1
                       S1
                       T1
                       U1
                       V1
                       W1
                       X1
                       Y1
                       Z1
                       A2
                       B2
                       C2
                       D2)
          a!85))))))))
     :weight 0))
